c leafs=48, vars=12, seed=1, tickle=None
p cnf 547 1462                                                                
e 13 14 15 16 17 18 19 20 21 22 23 24 25 26 27 28 29 30 31 32 33 34 35 36 37 38 39 40 41 42 43 44 45 46 47 48 49 50 51 52 53 54 55 56 57 58 59 60  0
a 1 2 3 4 5 6 7 8 9 10 11 12  0
e 61 62 63 64 65 66 67 68 69 70 71 72 73 74 75 76 77 78 79 80 81 82 83 84 85 86 87 88 89 90 91 92 93 94 95 96 97 98 99 100 101 102 103 104 105 106 107 108 109 110 111 112 113 114 115 116 117 118 119 120 121 122 123 124 125 126 127 128 129 130 131 132 133 134 135 136 137 138 139 140 141 142 143 144 145 146 147 148 149 150 151 152 153 154 155 156 157 158 159 160 161 162 163 164 165 166 167 168 169 170 171 172 173 174 175 176 177 178 179 180 181 182 183 184 185 186 187 188 189 190 191 192 193 194 195 196 197 198 199 200 201 202 203 204 205 206 207 208 209 210 211 212 213 214 215 216 217 218 219 220 221 222 223 224 225 226 227 228 229 230 231 232 233 234 235 236 237 238 239 240 241 242 243 244 245 246 247 248 249 250 251 252 253 254 255 256 257 258 259 260 261 262 263 264 265 266 267 268 269 270 271 272 273 274 275 276 277 278 279 280 281 282 283 284 285 286 287 288 289 290 291 292 293 294 295 296 297 298 299 300 301 302 303 304 305 306 307 308 309 310 311 312 313 314 315 316 317 318 319 320 321 322 323 324 325 326 327 328 329 330 331 332 333 334 335 336 337 338 339 340 341 342 343 344 345 346 347 348 349 350 351 352 353 354 355 356 357 358 359 360 361 362 363 364 365 366 367 368 369 370 371 372 373 374 375 376 377 378 379 380 381 382 383 384 385 386 387 388 389 390 391 392 393 394 395 396 397 398 399 400 401 402 403 404 405 406 407 408 409 410 411 412 413 414 415 416 417 418 419 420 421 422 423 424 425 426 427 428 429 430 431 432 433 434 435 436 437 438 439 440 441 442 443 444 445 446 447 448 449 450 451 452 453 454 455 456 457 458 459 460 461 462 463 464 465 466 467 468 469 470 471 472 473 474 475 476 477 478 479 480 481 482 483 484 485 486 487 488 489 490 491 492 493 494 495 496 497 498 499 500 501 502 503 504 505 506 507 508 509 510 511 512 513 514 515 516 517 518 519 520 521 522 523 524 525 526 527 528 529 530 531 532 533 534 535 536 537 538 539 540 541 542 543 544 545 546 547  0
547  0
-61 -19 2  0
61 19  0
61 -2  0
-62 3 19  0
62 -3  0
62 -19  0
63 20 5  0
-63 -20  0
-63 -5  0
64 -9 -20  0
-64 9  0
-64 20  0
65 -2 -21  0
-65 2  0
-65 21  0
66 21 7  0
-66 -21  0
-66 -7  0
-67 -24 6  0
67 24  0
67 -6  0
-68 10 24  0
68 -10  0
68 -24  0
-69 6 22  0
69 -6  0
69 -22  0
-70 -22 1  0
70 22  0
70 -1  0
-71 -23 -5  0
71 23  0
71 5  0
-72 4 23  0
72 -4  0
72 -23  0
-73 -8 17  0
73 8  0
73 -17  0
-74 -17 -1  0
74 17  0
74 1  0
-75 -18 -11  0
75 18  0
75 11  0
-76 3 18  0
76 -3  0
76 -18  0
77 8 -16  0
-77 -8  0
-77 16  0
78 16 2  0
-78 -16  0
-78 -2  0
79 5 -15  0
-79 -5  0
-79 15  0
80 15 -10  0
-80 -15  0
-80 10  0
-81 -6 14  0
81 6  0
81 -14  0
-82 -14 9  0
82 14  0
82 -9  0
-83 -13 -11  0
83 13  0
83 11  0
-84 7 13  0
84 -7  0
84 -13  0
85 36 1  0
-85 -36  0
-85 -1  0
86 10 -36  0
-86 -10  0
-86 36  0
87 -2 -35  0
-87 2  0
-87 35  0
88 35 11  0
-88 -35  0
-88 -11  0
89 -5 -34  0
-89 5  0
-89 34  0
90 34 -7  0
-90 -34  0
-90 7  0
91 9 -31  0
-91 -9  0
-91 31  0
92 31 4  0
-92 -31  0
-92 -4  0
93 3 -32  0
-93 -3  0
-93 32  0
94 32 10  0
-94 -32  0
-94 -10  0
95 33 -8  0
-95 -33  0
-95 8  0
96 1 -33  0
-96 -1  0
-96 33  0
97 2 -29  0
-97 -2  0
-97 29  0
98 29 -8  0
-98 -29  0
-98 8  0
99 28 -12  0
-99 -28  0
-99 12  0
100 10 -28  0
-100 -10  0
-100 28  0
101 30 5  0
-101 -30  0
-101 -5  0
102 -7 -30  0
-102 7  0
-102 30  0
-103 -27 6  0
103 27  0
103 -6  0
-104 -12 27  0
104 12  0
104 -27  0
-105 -26 -2  0
105 26  0
105 2  0
-106 -9 26  0
106 9  0
106 -26  0
107 -10 -25  0
-107 10  0
-107 25  0
108 25 -3  0
-108 -25  0
-108 3  0
-109 -49 -10  0
109 49  0
109 10  0
-110 5 49  0
110 -5  0
110 -49  0
-111 -50 11  0
111 50  0
111 -11  0
-112 -9 50  0
112 9  0
112 -50  0
-113 -7 51  0
113 7  0
113 -51  0
-114 -51 6  0
114 51  0
114 -6  0
115 12 -53  0
-115 -12  0
-115 53  0
116 53 11  0
-116 -53  0
-116 -11  0
117 54 -4  0
-117 -54  0
-117 4  0
118 6 -54  0
-118 -6  0
-118 54  0
-119 8 52  0
119 -8  0
119 -52  0
-120 -52 -2  0
120 52  0
120 2  0
-121 -58 9  0
121 58  0
121 -9  0
-122 -2 58  0
122 2  0
122 -58  0
-123 -59 -5  0
123 59  0
123 5  0
-124 -3 59  0
124 3  0
124 -59  0
-125 -3 60  0
125 3  0
125 -60  0
-126 -60 4  0
126 60  0
126 -4  0
-127 -56 10  0
127 56  0
127 -10  0
-128 -2 56  0
128 2  0
128 -56  0
-129 -57 -6  0
129 57  0
129 6  0
-130 -9 57  0
130 9  0
130 -57  0
-131 8 55  0
131 -8  0
131 -55  0
-132 -55 -7  0
132 55  0
132 7  0
-133 -46 2  0
133 46  0
133 -2  0
-134 4 46  0
134 -4  0
134 -46  0
135 1 -47  0
-135 -1  0
-135 47  0
136 47 -8  0
-136 -47  0
-136 8  0
137 48 -1  0
-137 -48  0
-137 1  0
138 7 -48  0
-138 -7  0
-138 48  0
-139 -3 43  0
139 3  0
139 -43  0
-140 -43 10  0
140 43  0
140 -10  0
-141 -45 11  0
141 45  0
141 -11  0
-142 3 45  0
142 -3  0
142 -45  0
-143 -44 5  0
143 44  0
143 -5  0
-144 12 44  0
144 -12  0
144 -44  0
-145 -39 -4  0
145 39  0
145 4  0
-146 -7 39  0
146 7  0
146 -39  0
147 38 -6  0
-147 -38  0
-147 6  0
148 5 -38  0
-148 -5  0
-148 38  0
149 37 8  0
-149 -37  0
-149 -8  0
150 -9 -37  0
-150 9  0
-150 37  0
-151 -41 7  0
151 41  0
151 -7  0
-152 11 41  0
152 -11  0
152 -41  0
-153 -6 40  0
153 6  0
153 -40  0
-154 -40 -10  0
154 40  0
154 10  0
-155 -42 -7  0
155 42  0
155 7  0
-156 9 42  0
156 -9  0
156 -42  0
-157 -11 -10  0
157 11  0
157 10  0
-158 10 11  0
158 -10  0
158 -11  0
-159 -11 6  0
159 11  0
159 -6  0
-160 6 11  0
160 -6  0
160 -11  0
-161 -12 4  0
161 12  0
161 -4  0
-162 -4 12  0
162 4  0
162 -12  0
-163 4 5  0
163 -4  0
163 -5  0
-164 -5 -4  0
164 5  0
164 4  0
-165 -1 4  0
165 1  0
165 -4  0
-166 -4 1  0
166 4  0
166 -1  0
-167 -5 7  0
167 5  0
167 -7  0
-168 -7 5  0
168 7  0
168 -5  0
-169 -10 -9  0
169 10  0
169 9  0
-170 -10 9  0
170 10  0
170 -9  0
-171 1 9  0
171 -1  0
171 -9  0
-172 -1 9  0
172 1  0
172 -9  0
-173 -12 -8  0
173 12  0
173 8  0
-174 8 12  0
174 -8  0
174 -12  0
-175 -9 6  0
175 9  0
175 -6  0
-176 -6 9  0
176 6  0
176 -9  0
-177 -12 8  0
177 12  0
177 -8  0
-178 -8 12  0
178 8  0
178 -12  0
-179 -10 11  0
179 10  0
179 -11  0
-180 -11 10  0
180 11  0
180 -10  0
181 11 -5  0
-181 -11  0
-181 5  0
182 5 -11  0
-182 -5  0
-182 11  0
-183 -8 -6  0
183 8  0
183 6  0
-184 6 8  0
184 -6  0
184 -8  0
-185 -11 -5  0
185 11  0
185 5  0
-186 5 11  0
186 -5  0
186 -11  0
187 4 -7  0
-187 -4  0
-187 7  0
188 7 4  0
-188 -7  0
-188 -4  0
189 -61 -62  0
-189 61  0
-189 62  0
-190 63 64  0
190 -63  0
190 -64  0
-191 65 66  0
191 -65  0
191 -66  0
192 -67 -68  0
-192 67  0
-192 68  0
193 -69 -70  0
-193 69  0
-193 70  0
194 -71 -72  0
-194 71  0
-194 72  0
195 -73 -74  0
-195 73  0
-195 74  0
196 -75 -76  0
-196 75  0
-196 76  0
-197 77 78  0
197 -77  0
197 -78  0
-198 79 80  0
198 -79  0
198 -80  0
199 -81 -82  0
-199 81  0
-199 82  0
200 -83 -84  0
-200 83  0
-200 84  0
-201 85 86  0
201 -85  0
201 -86  0
-202 87 88  0
202 -87  0
202 -88  0
-203 89 90  0
203 -89  0
203 -90  0
-204 91 92  0
204 -91  0
204 -92  0
-205 93 94  0
205 -93  0
205 -94  0
-206 95 96  0
206 -95  0
206 -96  0
-207 97 98  0
207 -97  0
207 -98  0
-208 99 100  0
208 -99  0
208 -100  0
-209 101 102  0
209 -101  0
209 -102  0
210 -103 -104  0
-210 103  0
-210 104  0
211 -105 -106  0
-211 105  0
-211 106  0
-212 107 108  0
212 -107  0
212 -108  0
213 -109 -110  0
-213 109  0
-213 110  0
214 -111 -112  0
-214 111  0
-214 112  0
215 -113 -114  0
-215 113  0
-215 114  0
-216 115 116  0
216 -115  0
216 -116  0
-217 117 118  0
217 -117  0
217 -118  0
218 -119 -120  0
-218 119  0
-218 120  0
219 -121 -122  0
-219 121  0
-219 122  0
220 -123 -124  0
-220 123  0
-220 124  0
221 -125 -126  0
-221 125  0
-221 126  0
222 -127 -128  0
-222 127  0
-222 128  0
223 -129 -130  0
-223 129  0
-223 130  0
224 -131 -132  0
-224 131  0
-224 132  0
225 -133 -134  0
-225 133  0
-225 134  0
-226 135 136  0
226 -135  0
226 -136  0
-227 137 138  0
227 -137  0
227 -138  0
228 -139 -140  0
-228 139  0
-228 140  0
229 -141 -142  0
-229 141  0
-229 142  0
230 -143 -144  0
-230 143  0
-230 144  0
231 -145 -146  0
-231 145  0
-231 146  0
-232 147 148  0
232 -147  0
232 -148  0
-233 149 150  0
233 -149  0
233 -150  0
234 -151 -152  0
-234 151  0
-234 152  0
235 -153 -154  0
-235 153  0
-235 154  0
236 -155 -156  0
-236 155  0
-236 156  0
237 -157 -158  0
-237 157  0
-237 158  0
-238 10 159  0
238 -10  0
238 -159  0
-239 -10 160  0
239 10  0
239 -160  0
240 -161 -162  0
-240 161  0
-240 162  0
241 -163 -164  0
-241 163  0
-241 164  0
242 -165 -166  0
-242 165  0
-242 166  0
243 -167 -168  0
-243 167  0
-243 168  0
-244 6 169  0
244 -6  0
244 -169  0
-245 -6 170  0
245 6  0
245 -170  0
246 3 -171  0
-246 -3  0
-246 171  0
247 -3 -172  0
-247 3  0
-247 172  0
248 -173 -174  0
-248 173  0
-248 174  0
249 -175 -176  0
-249 175  0
-249 176  0
250 -177 -178  0
-250 177  0
-250 178  0
251 -179 -180  0
-251 179  0
-251 180  0
252 5 158  0
-252 -5  0
-252 -158  0
253 -5 180  0
-253 5  0
-253 -180  0
-254 181 182  0
254 -181  0
254 -182  0
255 -183 -184  0
-255 183  0
-255 184  0
256 -185 -186  0
-256 185  0
-256 186  0
257 8 -187  0
-257 -8  0
-257 187  0
258 -8 -188  0
-258 8  0
-258 188  0
-259 190 191  0
259 -190  0
259 -191  0
-260 -190 -191  0
260 190  0
260 191  0
-261 193 194  0
261 -193  0
261 -194  0
-262 -194 -193  0
262 194  0
262 193  0
263 -195 -196  0
-263 195  0
-263 196  0
264 196 195  0
-264 -196  0
-264 -195  0
265 -199 -200  0
-265 199  0
-265 200  0
266 199 200  0
-266 -199  0
-266 -200  0
267 -201 -202  0
-267 201  0
-267 202  0
268 201 202  0
-268 -201  0
-268 -202  0
269 -205 -206  0
-269 205  0
-269 206  0
270 206 205  0
-270 -206  0
-270 -205  0
271 -207 -208  0
-271 207  0
-271 208  0
272 208 207  0
-272 -208  0
-272 -207  0
273 -210 -211  0
-273 210  0
-273 211  0
274 210 211  0
-274 -210  0
-274 -211  0
-275 213 214  0
275 -213  0
275 -214  0
-276 -213 -214  0
276 213  0
276 214  0
-277 216 217  0
277 -216  0
277 -217  0
-278 -217 -216  0
278 217  0
278 216  0
-279 220 221  0
279 -220  0
279 -221  0
-280 -220 -221  0
280 220  0
280 221  0
-281 222 223  0
281 -222  0
281 -223  0
-282 -222 -223  0
282 222  0
282 223  0
-283 226 227  0
283 -226  0
283 -227  0
-284 -227 -226  0
284 227  0
284 226  0
-285 229 230  0
285 -229  0
285 -230  0
-286 -229 -230  0
286 229  0
286 230  0
-287 232 233  0
287 -232  0
287 -233  0
-288 -232 -233  0
288 232  0
288 233  0
-289 234 235  0
289 -234  0
289 -235  0
-290 -234 -235  0
290 234  0
290 235  0
291 6 -237  0
-291 -6  0
-291 237  0
292 -238 -239  0
-292 238  0
-292 239  0
293 10 -242  0
-293 -10  0
-293 242  0
-294 -3 243  0
294 3  0
294 -243  0
295 -244 -245  0
-295 244  0
-295 245  0
-296 5 -237  0
296 -5  0
296 237  0
-297 246 247  0
297 -246  0
297 -247  0
298 7 -248  0
-298 -7  0
-298 248  0
-299 7 250  0
299 -7  0
299 -250  0
-300 5 251  0
300 -5  0
300 -251  0
-301 252 253  0
301 -252  0
301 -253  0
-302 10 254  0
302 -10  0
302 -254  0
-303 4 255  0
303 -4  0
303 -255  0
-304 257 258  0
304 -257  0
304 -258  0
305 -259 -260  0
-305 259  0
-305 260  0
306 -261 -262  0
-306 261  0
-306 262  0
-307 263 264  0
307 -263  0
307 -264  0
-308 265 266  0
308 -265  0
308 -266  0
-309 267 268  0
309 -267  0
309 -268  0
-310 269 270  0
310 -269  0
310 -270  0
-311 271 272  0
311 -271  0
311 -272  0
-312 273 274  0
312 -273  0
312 -274  0
313 -275 -276  0
-313 275  0
-313 276  0
314 -277 -278  0
-314 277  0
-314 278  0
315 -279 -280  0
-315 279  0
-315 280  0
316 -281 -282  0
-316 281  0
-316 282  0
317 -283 -284  0
-317 283  0
-317 284  0
318 -285 -286  0
-318 285  0
-318 286  0
319 -287 -288  0
-319 287  0
-319 288  0
320 -289 -290  0
-320 289  0
-320 290  0
-321 -2 291  0
321 2  0
321 -291  0
-322 2 292  0
322 -2  0
322 -292  0
-323 -240 292  0
323 240  0
323 -292  0
-324 293 294  0
324 -293  0
324 -294  0
-325 -293 -294  0
325 293  0
325 294  0
-326 296 297  0
326 -296  0
326 -297  0
-327 -296 -297  0
327 296  0
327 297  0
-328 -10 298  0
328 10  0
328 -298  0
-329 10 -298  0
329 -10  0
329 298  0
-330 -249 299  0
330 249  0
330 -299  0
-331 -297 300  0
331 297  0
331 -300  0
-332 -300 297  0
332 300  0
332 -297  0
333 7 -301  0
-333 -7  0
-333 301  0
334 -4 -301  0
-334 4  0
-334 301  0
335 4 -302  0
-335 -4  0
-335 302  0
336 -7 -301  0
-336 7  0
-336 301  0
-337 -10 299  0
337 10  0
337 -299  0
-338 10 -299  0
338 -10  0
338 299  0
-339 -249 298  0
339 249  0
339 -298  0
340 -189 -305  0
-340 189  0
-340 305  0
-341 192 306  0
341 -192  0
341 -306  0
342 -307 -197  0
-342 307  0
-342 197  0
-343 198 308  0
343 -198  0
343 -308  0
-344 309 203  0
344 -309  0
344 -203  0
345 -204 -310  0
-345 204  0
-345 310  0
-346 311 209  0
346 -311  0
346 -209  0
347 -312 -212  0
-347 312  0
-347 212  0
-348 313 215  0
348 -313  0
348 -215  0
-349 314 218  0
349 -314  0
349 -218  0
-350 219 315  0
350 -219  0
350 -315  0
-351 316 224  0
351 -316  0
351 -224  0
-352 225 317  0
352 -225  0
352 -317  0
-353 228 318  0
353 -228  0
353 -318  0
354 -231 -319  0
-354 231  0
-354 319  0
355 -320 -236  0
-355 320  0
-355 236  0
356 -321 -322  0
-356 321  0
-356 322  0
357 -324 -325  0
-357 324  0
-357 325  0
358 -326 -327  0
-358 326  0
-358 327  0
359 -328 -329  0
-359 328  0
-359 329  0
360 -331 -332  0
-360 331  0
-360 332  0
-361 334 335  0
361 -334  0
361 -335  0
362 -337 -338  0
-362 337  0
-362 338  0
-363 340 341  0
363 -340  0
363 -341  0
-364 -340 -341  0
364 340  0
364 341  0
-365 342 343  0
365 -342  0
365 -343  0
-366 -343 -342  0
366 343  0
366 342  0
-367 344 345  0
367 -344  0
367 -345  0
-368 -345 -344  0
368 345  0
368 344  0
-369 346 347  0
369 -346  0
369 -347  0
-370 -346 -347  0
370 346  0
370 347  0
-371 348 349  0
371 -348  0
371 -349  0
-372 -348 -349  0
372 348  0
372 349  0
-373 350 351  0
373 -350  0
373 -351  0
-374 -351 -350  0
374 351  0
374 350  0
-375 352 353  0
375 -352  0
375 -353  0
-376 -353 -352  0
376 353  0
376 352  0
-377 354 355  0
377 -354  0
377 -355  0
-378 -355 -354  0
378 355  0
378 354  0
-379 356 240  0
379 -356  0
379 -240  0
380 7 -357  0
-380 -7  0
-380 357  0
381 -7 -357  0
-381 7  0
-381 357  0
-382 5 357  0
382 -5  0
382 -357  0
383 8 -358  0
-383 -8  0
-383 358  0
384 -8 -358  0
-384 8  0
-384 358  0
-385 -7 358  0
385 7  0
385 -358  0
-386 359 249  0
386 -359  0
386 -249  0
387 -7 -361  0
-387 7  0
-387 361  0
388 7 -361  0
-388 -7  0
-388 361  0
-389 -8 360  0
389 8  0
389 -360  0
-390 8 360  0
390 -8  0
390 -360  0
-391 -7 360  0
391 7  0
391 -360  0
-392 362 249  0
392 -362  0
392 -249  0
393 -363 -364  0
-393 363  0
-393 364  0
394 -365 -366  0
-394 365  0
-394 366  0
395 -367 -368  0
-395 367  0
-395 368  0
396 -369 -370  0
-396 369  0
-396 370  0
397 -371 -372  0
-397 371  0
-397 372  0
398 -373 -374  0
-398 373  0
-398 374  0
399 -375 -376  0
-399 375  0
-399 376  0
400 -377 -378  0
-400 377  0
-400 378  0
401 -379 -323  0
-401 379  0
-401 323  0
-402 9 380  0
402 -9  0
402 -380  0
-403 -9 381  0
403 9  0
403 -381  0
-404 -9 380  0
404 9  0
404 -380  0
-405 9 381  0
405 -9  0
405 -381  0
-406 12 383  0
406 -12  0
406 -383  0
-407 -12 384  0
407 12  0
407 -384  0
-408 -12 383  0
408 12  0
408 -383  0
-409 12 384  0
409 -12  0
409 -384  0
410 -386 -330  0
-410 386  0
-410 330  0
-411 333 387  0
411 -333  0
411 -387  0
-412 336 388  0
412 -336  0
412 -388  0
-413 12 389  0
413 -12  0
413 -389  0
-414 -12 390  0
414 12  0
414 -390  0
-415 -12 389  0
415 12  0
415 -389  0
-416 12 390  0
416 -12  0
416 -390  0
417 -392 -339  0
-417 392  0
-417 339  0
418 -393 -394  0
-418 393  0
-418 394  0
-419 395 396  0
419 -395  0
419 -396  0
-420 397 398  0
420 -397  0
420 -398  0
421 -399 -400  0
-421 399  0
-421 400  0
-422 401 241  0
422 -401  0
422 -241  0
423 2 -401  0
-423 -2  0
-423 401  0
424 -2 -401  0
-424 2  0
-424 401  0
425 -402 -403  0
-425 402  0
-425 403  0
426 -404 -405  0
-426 404  0
-426 405  0
427 -406 -407  0
-427 406  0
-427 407  0
428 -408 -409  0
-428 408  0
-428 409  0
-429 410 360  0
429 -410  0
429 -360  0
430 8 -411  0
-430 -8  0
-430 411  0
431 -8 -412  0
-431 8  0
-431 412  0
432 -413 -414  0
-432 413  0
-432 414  0
433 -415 -416  0
-433 415  0
-433 416  0
434 -417 -358  0
-434 417  0
-434 358  0
-435 418 419  0
435 -418  0
435 -419  0
-436 -419 -418  0
436 419  0
436 418  0
-437 420 421  0
437 -420  0
437 -421  0
-438 -420 -421  0
438 420  0
438 421  0
-439 423 -241  0
439 -423  0
439 241  0
440 -241 -424  0
-440 241  0
-440 424  0
-441 -5 425  0
441 5  0
441 -425  0
442 -5 -426  0
-442 5  0
-442 426  0
-443 7 427  0
443 -7  0
443 -427  0
444 7 -428  0
-444 -7  0
-444 428  0
-445 430 431  0
445 -430  0
445 -431  0
-446 7 432  0
446 -7  0
446 -432  0
-447 7 433  0
447 -7  0
447 -433  0
448 -435 -436  0
-448 435  0
-448 436  0
449 -437 -438  0
-449 437  0
-449 438  0
450 -422 -439  0
-450 422  0
-450 439  0
-451 -6 440  0
451 6  0
451 -440  0
-452 6 440  0
452 -6  0
452 -440  0
453 -441 -382  0
-453 441  0
-453 382  0
-454 -1 442  0
454 1  0
454 -442  0
-455 1 442  0
455 -1  0
455 -442  0
456 -443 -385  0
-456 443  0
-456 385  0
-457 444 -295  0
457 -444  0
457 295  0
-458 446 -295  0
458 -446  0
458 295  0
459 -447 -391  0
-459 447  0
-459 391  0
460 -448 -449  0
-460 448  0
-460 449  0
-461 6 450  0
461 -6  0
461 -450  0
-462 -6 450  0
462 6  0
462 -450  0
-463 -8 450  0
463 8  0
463 -450  0
-464 -2 453  0
464 2  0
464 -453  0
-465 1 453  0
465 -1  0
465 -453  0
-466 -1 453  0
466 1  0
466 -453  0
-467 295 456  0
467 -295  0
467 -456  0
-468 295 459  0
468 -295  0
468 -459  0
469 -461 -451  0
-469 461  0
-469 451  0
470 -452 -462  0
-470 452  0
-470 462  0
471 -465 -454  0
-471 465  0
-471 454  0
472 -466 -455  0
-472 466  0
-472 455  0
473 -467 -457  0
-473 467  0
-473 457  0
474 -458 -468  0
-474 458  0
-474 468  0
-475 10 469  0
475 -10  0
475 -469  0
-476 -10 470  0
476 10  0
476 -470  0
-477 -11 471  0
477 11  0
477 -471  0
-478 11 472  0
478 -11  0
478 -472  0
479 -475 -476  0
-479 475  0
-479 476  0
480 -477 -478  0
-480 477  0
-480 478  0
-481 8 479  0
481 -8  0
481 -479  0
-482 2 480  0
482 -2  0
482 -480  0
483 -481 -463  0
-483 481  0
-483 463  0
484 -464 -482  0
-484 464  0
-484 482  0
-485 484 473  0
485 -484  0
485 -473  0
-486 429 -484  0
486 -429  0
486 484  0
-487 474 484  0
487 -474  0
487 -484  0
-488 434 -484  0
488 -434  0
488 484  0
489 -485 -486  0
-489 485  0
-489 486  0
490 -487 -488  0
-490 487  0
-490 488  0
-491 489 445  0
491 -489  0
491 -445  0
-492 -9 489  0
492 9  0
492 -489  0
-493 9 489  0
493 -9  0
493 -489  0
-494 489 251  0
494 -489  0
494 -251  0
495 -9 -490  0
-495 9  0
-495 490  0
496 9 -490  0
-496 -9  0
-496 490  0
-497 490 251  0
497 -490  0
497 -251  0
-498 490 445  0
498 -490  0
498 -445  0
-499 492 237  0
499 -492  0
499 -237  0
-500 493 -251  0
500 -493  0
500 251  0
501 -495 -251  0
-501 495  0
-501 251  0
-502 496 -251  0
502 -496  0
502 251  0
-503 303 499  0
503 -303  0
503 -499  0
504 -500 -494  0
-504 500  0
-504 494  0
-505 -303 499  0
505 303  0
505 -499  0
-506 303 501  0
506 -303  0
506 -501  0
507 -502 -497  0
-507 502  0
-507 497  0
-508 -303 501  0
508 303  0
508 -501  0
-509 504 -303  0
509 -504  0
509 303  0
-510 504 303  0
510 -504  0
510 -303  0
-511 -303 507  0
511 303  0
511 -507  0
-512 303 507  0
512 -303  0
512 -507  0
513 -503 -509  0
-513 503  0
-513 509  0
514 -510 -505  0
-514 510  0
-514 505  0
515 -506 -511  0
-515 506  0
-515 511  0
516 -508 -512  0
-516 508  0
-516 512  0
-517 513 -445  0
517 -513  0
517 445  0
-518 10 514  0
518 -10  0
518 -514  0
-519 -10 514  0
519 10  0
519 -514  0
-520 514 -254  0
520 -514  0
520 254  0
-521 515 -445  0
521 -515  0
521 445  0
-522 516 -254  0
522 -516  0
522 254  0
523 -10 -516  0
-523 10  0
-523 516  0
524 10 -516  0
-524 -10  0
-524 516  0
525 -491 -517  0
-525 491  0
-525 517  0
-526 256 518  0
526 -256  0
526 -518  0
-527 254 519  0
527 -254  0
527 -519  0
528 -521 -498  0
-528 521  0
-528 498  0
-529 523 254  0
529 -523  0
529 -254  0
530 -524 254  0
-530 524  0
-530 -254  0
-531 483 525  0
531 -483  0
531 -525  0
-532 526 304  0
532 -526  0
532 -304  0
533 -527 -520  0
-533 527  0
-533 520  0
-534 483 528  0
534 -483  0
534 -528  0
535 -522 -529  0
-535 522  0
-535 529  0
-536 530 304  0
536 -530  0
536 -304  0
-537 533 -304  0
537 -533  0
537 304  0
-538 535 -304  0
538 -535  0
538 304  0
539 -532 -537  0
-539 532  0
-539 537  0
540 -538 -536  0
-540 538  0
-540 536  0
-541 -483 539  0
541 483  0
541 -539  0
-542 -483 540  0
542 483  0
542 -540  0
543 -531 -541  0
-543 531  0
-543 541  0
544 -534 -542  0
-544 534  0
-544 542  0
-545 460 543  0
545 -460  0
545 -543  0
-546 544 -460  0
546 -544  0
546 460  0
547 -545 -546  0
-547 545  0
-547 546  0
